c generated by sgen3tocnf
c nLits = 636
c actual nVars = 101
c Command: sgen3tocnf 025 0 20 25 101 4 2 0 /dev/null
p cnf 101 212
-1 -13 -33 0
-1 -13 -57 0
-1 -33 -57 0
-13 -33 -57 0
-17 -29 -53 0
-17 -29 -65 0
-17 -53 -65 0
-29 -53 -65 0
-37 -66 -77 0
-37 -66 -81 0
-37 -77 -81 0
-66 -77 -81 0
-9 -61 -73 0
-9 -61 -97 0
-9 -73 -97 0
-61 -73 -97 0
-2 -49 -82 0
-2 -49 -93 0
-2 -82 -93 0
-49 -82 -93 0
-25 -34 -89 0
-25 -34 -94 0
-25 -89 -94 0
-34 -89 -94 0
-35 -62 -69 0
-35 -62 -78 0
-35 -69 -78 0
-62 -69 -78 0
-14 -30 -90 0
-14 -30 -98 0
-14 -90 -98 0
-30 -90 -98 0
-15 -41 -45 0
-15 -41 -95 0
-15 -45 -95 0
-41 -45 -95 0
-46 -58 -67 0
-46 -58 -85 0
-46 -67 -85 0
-58 -67 -85 0
-5 -70 -83 0
-5 -70 -99 0
-5 -83 -99 0
-70 -83 -99 0
-31 -50 -59 0
-31 -50 -74 0
-31 -59 -74 0
-50 -59 -74 0
-51 -79 -86 0
-51 -79 -91 0
-51 -86 -91 0
-79 -86 -91 0
-42 -68 -71 0
-42 -68 -92 0
-42 -71 -92 0
-68 -71 -92 0
-21 -80 -96 0
-21 -80 -100 0
-21 -96 -100 0
-80 -96 -100 0
-6 -22 -32 0
-6 -22 -63 0
-6 -32 -63 0
-22 -32 -63 0
-23 -26 -43 0
-23 -26 -54 0
-23 -43 -54 0
-26 -43 -54 0
-3 -18 -75 0
-3 -18 -87 0
-3 -75 -87 0
-18 -75 -87 0
-7 -36 -55 0
-7 -36 -88 0
-7 -55 -88 0
-36 -55 -88 0
-8 -38 -47 0
-8 -38 -76 0
-8 -47 -76 0
-38 -47 -76 0
-19 -39 -44 0
-19 -39 -60 0
-19 -44 -60 0
-39 -44 -60 0
-27 -40 -52 0
-27 -40 -64 0
-27 -52 -64 0
-40 -52 -64 0
-10 -16 -56 0
-10 -16 -84 0
-10 -56 -84 0
-16 -56 -84 0
-4 -11 -24 0
-4 -11 -72 0
-4 -24 -72 0
-11 -24 -72 0
-12 -20 -28 0
-12 -20 -48 0
-12 -20 -101 0
-12 -28 -48 0
-12 -28 -101 0
-12 -48 -101 0
-20 -28 -48 0
-20 -28 -101 0
-20 -48 -101 0
-28 -48 -101 0
1 2 3 0
1 2 4 0
1 3 4 0
2 3 4 0
5 6 7 0
5 6 8 0
5 7 8 0
6 7 8 0
9 10 11 0
9 10 12 0
9 11 12 0
10 11 12 0
13 14 15 0
13 14 16 0
13 15 16 0
14 15 16 0
17 18 19 0
17 18 20 0
17 19 20 0
18 19 20 0
21 22 23 0
21 22 24 0
21 23 24 0
22 23 24 0
25 26 27 0
25 26 28 0
25 27 28 0
26 27 28 0
29 30 31 0
29 30 32 0
29 31 32 0
30 31 32 0
33 34 35 0
33 34 36 0
33 35 36 0
34 35 36 0
37 38 39 0
37 38 40 0
37 39 40 0
38 39 40 0
41 42 43 0
41 42 44 0
41 43 44 0
42 43 44 0
45 46 47 0
45 46 48 0
45 47 48 0
46 47 48 0
49 50 51 0
49 50 52 0
49 51 52 0
50 51 52 0
53 54 55 0
53 54 56 0
53 55 56 0
54 55 56 0
57 58 59 0
57 58 60 0
57 59 60 0
58 59 60 0
61 62 63 0
61 62 64 0
61 63 64 0
62 63 64 0
65 66 67 0
65 66 68 0
65 67 68 0
66 67 68 0
69 70 71 0
69 70 72 0
69 71 72 0
70 71 72 0
73 74 75 0
73 74 76 0
73 75 76 0
74 75 76 0
77 78 79 0
77 78 80 0
77 78 101 0
77 79 80 0
77 79 101 0
77 80 101 0
78 79 80 0
78 79 101 0
78 80 101 0
79 80 101 0
81 82 83 0
81 82 84 0
81 83 84 0
82 83 84 0
85 86 87 0
85 86 88 0
85 87 88 0
86 87 88 0
89 90 91 0
89 90 92 0
89 91 92 0
90 91 92 0
93 94 95 0
93 94 96 0
93 95 96 0
94 95 96 0
97 98 99 0
97 98 100 0
97 99 100 0
98 99 100 0
